PRODUCT = { A, B, C, D };
RESOURCE = { MONEY, AVAIL_A, AVAIL_B, AVAIL_C, AVAIL_D };
capacity = [10000, 1000, 400, 500, 150];
consumption =
  [| 13.0, 21.0, 17.0, 100.0 
   | 1.0, 0.0, 0.0, 0.0
   | 0.0, 1.0, 0.0, 0.0
   | 0.0, 0.0, 1.0, 0.0
   | 0.0, 0.0, 0.0, 1.0 |];
profit = [6.0, 10.0, 8.0, 40.0];
